int NumberPatients = 100
int NumberOfRooms = 2
int NumberSurgeons = 26
int NumberOfDays = 6
Duration = [53,32,140,79,103,66,32,98,66,74,47,53,31,260,31,260,119,85,72,112,105,157,59,159,217,227,72,98,46,30,159,47,159,227,32,78,85,72,66,238,53,201,117,31,98,66,98,32,130,263,93,32,47,47,53,53,119,217,227,98,103,105,32,32,30,47,53,31,119,47,92,131,85,85,277,117,60,31,30,97,117,29,47,131,47,66,267,244,58,98,132,101,100,60,66,66,32,60,60,32];
Priority = [0,0,0,0,0,0,0,0,0,0,0,0,0,0,0,0,0,0,0,0,0,0,0,0,0,0,0,0,0,0,0,0,0,0,0,0,0,0,0,0,0,0,0,0,0,1,0,0,0,0,0,0,0,0,0,0,0,0,0,0,0,0,0,0,0,1,0,0,0,0,0,0,0,0,0,0,0,0,0,0,0,0,0,0,0,0,0,0,0,0,0,0,0,0,0,0,0,0,0,0];
Waiting = [134,148,135,113,165,141,57,366,59,95,32,127,81,45,53,35,59,164,25,205,37,144,32,121,270,218,417,35,478,1047,256,156,324,79,155,25,200,106,221,30,84,24,37,37,85,78,375,49,35,57,164,84,60,494,45,204,417,46,24,261,101,38,79,148,70,37,56,39,191,32,74,50,116,59,205,297,144,37,288,198,116,184,456,102,338,135,480,297,46,289,280,134,324,116,494,35,171,155,107,36];
Surgeon = [4,8,10,1,3,6,3,2,4,1,5,3,1,6,1,3,13,1,6,3,2,4,5,2,7,3,6,7,6,5,2,6,10,3,1,3,1,1,10,6,4,1,6,3,3,3,8,8,4,3,3,6,5,2,1,9,6,10,1,5,2,1,1,5,2,3,12,3,4,9,1,3,8,2,2,7,1,6,3,3,7,6,8,2,1,3,1,7,1,2,1,6,3,2,2,3,3,2,1,1];
BlockAvailability = [[[0,0],[0,0]],[[0,1],[0,0]],[[0,0],[0,0]],[[1,0],[0,0]],[[0,0],[0,0]],[[0,1],[0,1]]];
SurgeonAvailability = [[[1,0],[1,1],[1,1],[1,1],[1,1],[0,1]],[[1,0],[1,1],[0,0],[0,1],[1,1],[1,1]],[[1,1],[0,1],[0,1],[0,1],[0,1],[1,0]],[[1,1],[1,1],[1,1],[0,1],[1,1],[1,1]],[[1,1],[1,0],[1,1],[1,1],[0,0],[1,1]],[[1,1],[1,1],[1,0],[1,1],[1,1],[1,0]],[[0,1],[0,1],[1,1],[0,0],[1,0],[1,0]],[[1,1],[1,1],[1,1],[1,1],[1,0],[1,1]],[[0,1],[0,1],[1,1],[0,0],[0,1],[1,1]],[[1,1],[0,1],[1,0],[1,0],[0,1],[0,1]],[[1,1],[0,1],[0,1],[1,1],[1,1],[1,1]],[[1,1],[1,0],[0,1],[1,1],[1,0],[0,0]],[[0,1],[0,0],[1,1],[1,0],[0,0],[1,1]],[[1,1],[1,1],[1,1],[1,1],[0,1],[1,0]],[[1,1],[1,0],[1,0],[1,1],[1,1],[1,1]],[[1,1],[1,1],[0,0],[0,1],[1,1],[0,1]],[[0,1],[1,1],[1,0],[0,1],[0,1],[1,0]],[[1,1],[1,0],[1,1],[0,1],[0,1],[0,1]],[[1,1],[1,1],[1,0],[1,1],[1,0],[1,1]],[[1,1],[1,1],[1,1],[1,1],[1,1],[0,1]],[[1,1],[1,1],[1,0],[0,1],[0,1],[1,1]],[[1,0],[1,0],[1,1],[1,1],[1,1],[1,0]],[[0,1],[1,1],[1,1],[1,1],[0,1],[0,1]],[[0,1],[0,1],[0,1],[1,0],[0,1],[1,1]],[[1,0],[0,1],[0,1],[1,1],[1,1],[0,1]],[[1,1],[0,1],[1,1],[1,1],[0,0],[1,0]]];
